c 47 AngularJS
c 22 Maven
c 11 Server
c 54 PostgreSQL
c 58 ModuleTobeInstall
c 18 nohbcache
c 70 GAtling
c 20 False
c 43 Consul
c 71 oauth2
c 64 MessageBroker
c 67 SearchEngine
c 59 ServerPortServeri18n
c 38 MySQL
c 15 MySql
c 40 EhCache
c 28 Client
c 9 AuthenticationType
c 7 ServerSideOption
c 41 LibSass
c 19 HibernateCache
c 16 JWT
c 45 HTTPSession
c 46 SwaggerCodegen
c 61 SQL
c 26 ApplicationType
c 51 Angular4
c 8 Uaa
c 14 Oracle12c
c 30 MicroserviceApplication
c 34 MongoDB
c 27 ClientFrameWork
c 3 Cucumber
c 12 MariaDBDev
c 6 Application
c 32 H2InMemory
c 66 PackageName
c 5 Gatling
c 17 SocialLogIn
c 63 Cassandra
c 39 H2DiskBased
c 60 ModuleNameClient
c 2 ProDataBaseType
c 65 ClusteredHttpSession
c 53 MsSQL
c 57 MsSql
c 1 Oracle
c 35 DataBaseType
c 31 OAuth2
c 49 jhipster
c 21 ServiceDiscoveryType
c 42 MicroserviceGateway
c 62 InternationalizationSupport
c 37 MariaDB
c 56 nodbtype
c 48 Base
c 10 WebSocket
c 25 Monolithic
c 69 Uaaserver
c 24 uaaBaseName
c 13 DevDataBaseType
c 33 HazelCast
c 4 TestFramework
c 23 BuildTool
c 44 UaaServer
c 36 PostgreSQLDev
c 29 Protractor
c 55 Gradle
c 50 Infinispan
c 52 Eureka
p cnf 71 719
-1 2 0
-3 4 0
-5 4 0
-4 6 0
-2 7 0
-8 9 0
-10 11 0
-12 13 0
-14 13 0
-15 13 0
-16 9 0
-17 11 0
-18 19 0
-15 13 0
-1 2 0
-20 21 0
-22 23 0
-24 11 0
-25 26 0
-27 28 0
-29 4 0
-1 2 0
-30 26 0
-31 9 0
-32 13 0
-19 7 0
-4 6 0
-19 7 0
-33 19 0
-3 4 0
-12 13 0
-34 35 0
-36 13 0
-37 2 0
-38 2 0
-31 9 0
-39 13 0
-37 2 0
-36 13 0
-14 13 0
-40 19 0
-12 13 0
-41 28 0
-42 26 0
-5 4 0
-33 19 0
-43 21 0
-30 26 0
-20 21 0
-34 35 0
-44 26 0
-25 26 0
-45 9 0
-46 11 0
-3 4 0
-33 19 0
-47 27 0
-18 19 0
-42 26 0
-20 21 0
-42 26 0
-29 4 0
-38 2 0
-32 13 0
-48 49 0
-50 19 0
-18 19 0
-35 7 0
-7 11 0
-42 26 0
-51 27 0
-8 9 0
-30 26 0
-51 27 0
-36 13 0
-52 21 0
-53 2 0
-54 2 0
-18 19 0
-31 9 0
-32 13 0
-54 2 0
-23 7 0
-55 23 0
-30 26 0
-20 21 0
-3 4 0
-9 7 0
-29 4 0
-29 4 0
-5 4 0
-45 9 0
-25 26 0
-28 48 0
-11 48 0
-54 2 0
-16 9 0
-32 13 0
-24 11 0
-5 4 0
-45 9 0
-14 13 0
-19 7 0
-30 26 0
-25 26 0
-14 13 0
-50 19 0
-3 4 0
-23 7 0
-16 9 0
-39 13 0
-13 7 0
-42 26 0
-56 35 0
-3 4 0
-31 9 0
-34 35 0
-8 9 0
-11 48 0
-42 26 0
-31 9 0
-2 7 0
-57 13 0
-38 2 0
-44 26 0
-58 6 0
-25 26 0
-2 7 0
-59 11 0
-52 21 0
-33 19 0
-60 28 0
-20 21 0
-61 35 0
-29 4 0
-29 4 0
-33 19 0
-62 48 0
-1 2 0
-40 19 0
-47 27 0
-3 4 0
-56 35 0
-16 9 0
-43 21 0
-24 11 0
-63 35 0
-64 11 0
-16 9 0
-53 2 0
-45 9 0
-57 13 0
-8 9 0
-3 4 0
-50 19 0
-12 13 0
-40 19 0
-58 6 0
-8 9 0
-60 28 0
-39 13 0
-30 26 0
-8 9 0
-44 26 0
-50 19 0
-43 21 0
-52 21 0
-9 7 0
-41 28 0
-33 19 0
-55 23 0
-25 26 0
-18 19 0
-63 35 0
-45 9 0
-8 9 0
-26 6 0
-25 26 0
-35 7 0
-43 21 0
-38 2 0
-17 11 0
-35 7 0
-3 4 0
-18 19 0
-45 9 0
-46 11 0
-44 26 0
-43 21 0
-30 26 0
-55 23 0
-5 4 0
-35 7 0
-20 21 0
-37 2 0
-30 26 0
-55 23 0
-3 4 0
-12 13 0
-61 35 0
-22 23 0
-19 7 0
-8 9 0
-5 4 0
-3 4 0
-13 7 0
-29 4 0
-3 4 0
-55 23 0
-26 6 0
-32 13 0
-40 19 0
-30 26 0
-22 23 0
-22 23 0
-42 26 0
-63 35 0
-19 7 0
-53 2 0
-53 2 0
-8 9 0
-20 21 0
-12 13 0
-38 2 0
-14 13 0
-55 23 0
-52 21 0
-20 21 0
-61 35 0
-50 19 0
-5 4 0
-52 21 0
-36 13 0
-7 11 0
-35 7 0
-29 4 0
-25 26 0
-20 21 0
-25 26 0
-31 9 0
-65 11 0
-47 27 0
-52 21 0
-63 35 0
-9 7 0
-16 9 0
-42 26 0
-38 2 0
-37 2 0
-58 6 0
-37 2 0
-7 11 0
-63 35 0
-39 13 0
-52 21 0
-37 2 0
-44 26 0
-51 27 0
-29 4 0
-31 9 0
-22 23 0
-12 13 0
-52 21 0
-32 13 0
-66 11 0
-52 21 0
-31 9 0
-29 4 0
-42 26 0
-22 23 0
-64 11 0
-29 4 0
-47 27 0
-9 7 0
-9 7 0
-65 11 0
-53 2 0
-16 9 0
-15 13 0
-41 28 0
-21 7 0
-5 4 0
-12 13 0
-6 48 0
-36 13 0
-45 9 0
-13 7 0
-16 9 0
-51 27 0
-31 9 0
-66 11 0
-30 26 0
-15 13 0
-64 11 0
-28 48 0
-22 23 0
-43 21 0
-42 26 0
-51 27 0
-34 35 0
-25 26 0
-45 9 0
-25 26 0
-43 21 0
-38 2 0
-20 21 0
-30 26 0
-5 4 0
-47 27 0
-2 7 0
-56 35 0
-6 48 0
-59 11 0
-35 7 0
-58 6 0
-47 27 0
-31 9 0
-39 13 0
-44 26 0
-5 4 0
-40 19 0
-57 13 0
-2 7 0
-8 9 0
-7 11 0
-21 7 0
-45 9 0
-34 35 0
-29 4 0
-67 11 0
-43 21 0
-1 2 0
-18 19 0
-52 21 0
-39 13 0
-46 11 0
-60 28 0
-56 35 0
-66 11 0
-2 7 0
-54 2 0
-31 9 0
-16 9 0
-16 9 0
-55 23 0
-25 26 0
-30 26 0
-4 6 0
-55 23 0
-8 9 0
-22 23 0
-60 28 0
-25 26 0
-62 48 0
-56 35 0
-1 2 0
-45 9 0
-54 2 0
-23 7 0
-5 4 0
-64 11 0
-58 6 0
-26 6 0
-43 21 0
-48 49 0
-13 7 0
-23 7 0
-26 6 0
-15 13 0
-45 9 0
-21 7 0
-67 11 0
-54 2 0
-27 28 0
-3 4 0
-16 9 0
-29 4 0
-43 21 0
-8 9 0
-6 48 0
-14 13 0
-57 13 0
-21 7 0
-2 7 0
-55 23 0
-51 27 0
-36 13 0
-25 26 0
-22 23 0
-40 19 0
-24 11 0
-9 7 0
-1 2 0
-54 2 0
-38 2 0
-15 13 0
-65 11 0
-45 9 0
-20 21 0
-56 35 0
-43 21 0
-16 9 0
-4 6 0
-13 7 0
-45 9 0
-45 9 0
-67 11 0
-3 4 0
-30 26 0
-21 7 0
-15 13 0
-40 19 0
-4 6 0
-25 26 0
-62 48 0
-55 23 0
-54 2 0
-44 26 0
-3 4 0
-47 27 0
-35 7 0
-20 21 0
-13 7 0
-10 11 0
-44 26 0
-62 48 0
-34 35 0
-11 48 0
-21 7 0
-43 21 0
-23 7 0
-30 26 0
-8 9 0
-55 23 0
-16 9 0
-2 7 0
-33 19 0
-18 19 0
-22 23 0
-40 19 0
-53 2 0
-21 7 0
-63 35 0
-23 7 0
-50 19 0
-35 7 0
-42 26 0
-31 9 0
-20 21 0
-20 21 0
-66 11 0
-32 13 0
-5 4 0
-36 13 0
-14 13 0
-61 35 0
-52 21 0
-17 11 0
-1 2 0
-31 9 0
-53 2 0
-13 7 0
-53 2 0
-20 21 0
-61 35 0
-44 26 0
-26 6 0
-59 11 0
-43 21 0
-56 35 0
-28 48 0
-44 26 0
-6 48 0
-61 35 0
-30 26 0
-51 27 0
-44 26 0
-57 13 0
-33 19 0
-61 35 0
-22 23 0
-22 23 0
-44 26 0
-4 6 0
-63 35 0
-8 9 0
-29 4 0
-37 2 0
-30 26 0
-22 23 0
-61 35 0
-19 7 0
-10 11 0
-52 21 0
-44 26 0
-42 26 0
-43 21 0
-25 26 0
-43 21 0
-51 27 0
-31 9 0
-9 7 0
-31 9 0
-52 21 0
-5 4 0
-45 9 0
-42 26 0
-39 13 0
-47 27 0
-42 26 0
-65 11 0
-31 9 0
-44 26 0
-11 48 0
-52 21 0
-55 23 0
-55 23 0
-57 13 0
-22 23 0
-55 23 0
-67 11 0
-28 48 0
-58 6 0
-52 21 0
-44 26 0
-26 6 0
-45 9 0
-8 9 0
-8 9 0
-58 6 0
-34 35 0
-44 26 0
-16 9 0
-5 4 0
-43 21 0
-29 4 0
-4 6 0
-5 4 0
-37 2 0
-36 13 0
-23 7 0
-42 26 0
-3 4 0
-15 13 0
-58 6 0
-9 7 0
-39 13 0
-5 4 0
-14 13 0
-19 7 0
-41 28 0
-57 13 0
-63 35 0
-32 13 0
-22 23 0
-27 28 0
-50 19 0
-56 35 0
-19 7 0
-22 23 0
-46 11 0
-55 23 0
-21 7 0
-26 6 0
-17 11 0
-4 6 0
-55 23 0
-50 19 0
-42 26 0
-34 35 0
-20 21 0
-13 7 0
-52 21 0
-10 11 0
-16 9 0
-26 6 0
-59 11 0
-57 13 0
-27 28 0
-16 9 0
-23 7 0
-29 4 0
49 0
-48 6 0
-26 42 25 30 44 0
-42 -30 0
-25 -44 0
-25 -30 0
-42 -25 0
-30 -44 0
-42 -44 0
-28 27 0
-27 47 51 0
-47 -51 0
-7 9 0
-11 24 0
-2 38 53 1 37 54 0
-38 -54 0
-38 -37 0
-53 -37 0
-1 -37 0
-37 -54 0
-1 -54 0
-53 -1 0
-38 -1 0
-53 -54 0
-38 -53 0
-11 7 0
-23 55 22 0
-55 -22 0
-7 21 0
-21 43 52 20 0
-43 -20 0
-43 -52 0
-52 -20 0
-35 61 63 56 34 0
-61 -63 0
-63 -56 0
-61 -56 0
-63 -34 0
-61 -34 0
-56 -34 0
-49 48 0
-28 60 0
-11 66 0
68 49 0
-13 14 32 36 12 57 15 39 0
-32 -36 0
-32 -57 0
-32 -39 0
-14 -15 0
-36 -39 0
-14 -39 0
-36 -57 0
-14 -32 0
-12 -39 0
-32 -15 0
-12 -57 0
-57 -15 0
-36 -15 0
-14 -57 0
-32 -12 0
-57 -39 0
-14 -36 0
-15 -39 0
-36 -12 0
-14 -12 0
-12 -15 0
-11 59 0
-7 23 0
-19 50 33 40 18 0
-50 -40 0
-33 -40 0
-50 -18 0
-33 -18 0
-50 -33 0
-40 -18 0
-6 26 0
-9 45 31 8 16 0
-31 -16 0
-8 -16 0
-45 -8 0
-45 -31 0
-45 -16 0
-31 -8 0
-6 4 0
-11 44 0
-30 35 0
-69 35 0
-42 35 0
-61 -53 39 32 57 0
17 0
46 0
-42 33 0
-42 -8 24 0
-30 -8 24 0
-56 -2 0
-13 0
-19 0
3 0
-58 0
10 0
35 61 63 34 0
-61 67 64 46 0
70 0
-41 0
-61 42 19 0
-71 35 61 34 0
-52 44 16 0
-61 -1 39 32 14 0
-61 -38 39 32 15 0
-61 -37 39 32 12 0
-67 0
-34 -2 0
-13 0
-19 0
-25 19 65 64 46 0
-25 -33 65 64 46 0
-42 19 65 64 46 0
-42 -33 65 64 46 0
-30 3 5 0
-44 3 5 0
64 0
63 -25 -45 17 64 46 0
63 -25 -16 17 64 46 0
-61 38 53 37 54 1 0
-25 52 16 45 31 0
29 0
-42 16 8 0
-30 16 8 0
-61 -54 39 32 36 0
-25 -21 52 0
-63 -2 0
-13 0
-19 0
28 0
65 0
-25 10 64 46 0
-42 10 64 46 0
